# Solution for model teste
# Objective value = 1.5391070409898946e+01
y1 1
y2 1
y3 1
y4 1
y5 1
y6 1
y7 1
y8 1
y9 1
y10 1
x1 0
x2 0
x3 0
x4 0
x5 0
x6 0
x7 0
x8 0
x9 0
x10 0
x11 0
x12 0
x13 0
x14 0
x15 0
x16 0
x17 1
x18 0
x19 0
x20 1
x21 0
x22 0
x23 1
x24 0
x25 0
x26 0
x27 0
x28 0
x29 0
x30 0
x31 0
x32 0
x33 0
x34 0
x35 0
x36 0
x37 0
x38 0
x39 0
x40 1
x41 0
x42 0
x43 1
x44 0
x45 0
x46 0
x47 0
x48 0
x49 0
z1_19 0
z1_20 1
z1_25 0
z1_26 0
z1_27 0
z1_33 0
z1_34 0
z2_16 0
z2_17 0
z2_23 1
z2_24 0
z2_25 0
z2_30 0
z2_31 0
z3_32 0
z3_38 0
z3_39 0
z3_40 1
z3_46 0
z3_47 0
z4_16 0
z4_17 1
z4_18 0
z4_23 0
z4_24 0
z5_36 0
z5_37 0
z5_43 1
z5_44 0
z6_26 0
z6_27 0
z6_32 0
z6_33 0
z6_34 0
z6_40 1
z6_41 0
z7_9 0
z7_10 0
z7_16 0
z7_17 1
z7_18 0
z7_24 0
z8_6 0
z8_7 0
z8_13 0
z8_14 0
z8_20 1
z8_21 0
z9_19 0
z9_20 1
z9_21 0
z9_26 0
z9_27 0
z9_28 0
z9_34 0
z10_15 0
z10_16 0
z10_17 0
z10_22 0
z10_23 1
z10_24 0
z10_30 0
